20 43
1 2 1
1 3 2
1 4 1
1 5 5
2 3 3
2 4 1
2 5 4
3 4 1
3 5 1
4 5 4
5 6 4
6 7 4
6 8 2
6 9 3
6 10 3
7 8 1
7 9 5
7 10 4
8 9 4
8 10 2
9 10 4
10 11 4
11 12 3
11 13 2
11 14 3
11 15 4
12 13 5
12 14 5
12 15 4
13 14 3
13 15 2
14 15 4
15 16 1
16 17 2
16 18 4
16 19 3
16 20 5
17 18 4
17 19 1
17 20 4
18 19 1
18 20 1
19 20 1
